\ This file has been generated by DOcplex
\ ENCODING=ISO-8859-1
\Problem name: random_problem.lp

Minimize
 obj: - 1180 x0 - 590 x1 - 295 x2 - 2580 x3 - 1290 x4 - 645 x5 + [ 1568 x0^2
      + 1568 x0*x1 + 784 x0*x2 + 448 x0*x3 + 224 x0*x4 + 112 x0*x5 + 392 x1^2
      + 392 x1*x2 + 224 x1*x3 + 112 x1*x4 + 56 x1*x5 + 98 x2^2 + 112 x2*x3
      + 56 x2*x4 + 28 x2*x5 + 8320 x3^2 + 8320 x3*x4 + 4160 x3*x5 + 2080 x4^2
      + 2080 x4*x5 + 520 x5^2 ]/2
Subject To
 c0: 4 x0 + 2 x1 + x2 + 4 x3 + 2 x4 + x5 = 7

Bounds
 0 <= x0 <= 1
 0 <= x1 <= 1
 0 <= x2 <= 1
 0 <= x3 <= 1
 0 <= x4 <= 1
 0 <= x5 <= 1

Binaries
 x0 x1 x2 x3 x4 x5
End
